letting n =  10
letting blocks =  [[1, 2], [1, 4], [1, 5], [1, 6], [1, 9], [2, 2], [2, 4], [2, 6], [2, 8], [3, 2], [3, 3], [3, 6], [3, 10], [4, 2], [4, 3], [4, 5], [4, 7], [4, 9], [4, 10], [5, 4], [5, 8], [5, 10], [6, 3], [6, 5], [6, 6], [6, 7], [6, 9], [6, 10], [7, 5], [7, 6], [7, 7], [7, 8], [8, 1], [8, 2], [8, 5], [8, 8], [9, 3], [9, 7], [9, 10], [10, 3], [10, 5], [10, 10]]
